c nombre: 21
c densidad: 0.3
p edges 90 1220
e 1 5
e 1 8
e 1 21
e 1 28
e 1 29
e 1 30
e 1 32
e 1 36
e 1 37
e 1 39
e 1 43
e 1 48
e 1 54
e 1 56
e 1 59
e 1 60
e 1 63
e 1 65
e 1 75
e 1 78
e 1 79
e 1 85
e 2 4
e 2 9
e 2 12
e 2 20
e 2 27
e 2 32
e 2 33
e 2 35
e 2 45
e 2 49
e 2 50
e 2 53
e 2 56
e 2 59
e 2 60
e 2 64
e 2 65
e 2 73
e 2 74
e 2 78
e 2 79
e 2 82
e 3 4
e 3 5
e 3 11
e 3 18
e 3 20
e 3 29
e 3 31
e 3 35
e 3 36
e 3 37
e 3 45
e 3 46
e 3 47
e 3 51
e 3 52
e 3 53
e 3 56
e 3 57
e 3 58
e 3 60
e 3 63
e 3 69
e 3 73
e 3 74
e 3 75
e 3 76
e 3 77
e 3 79
e 3 81
e 3 85
e 3 88
e 3 89
e 3 90
e 4 5
e 4 12
e 4 13
e 4 22
e 4 23
e 4 24
e 4 26
e 4 32
e 4 35
e 4 36
e 4 37
e 4 42
e 4 47
e 4 50
e 4 53
e 4 56
e 4 61
e 4 65
e 4 68
e 4 70
e 4 73
e 4 74
e 4 75
e 4 76
e 4 82
e 4 84
e 4 86
e 4 87
e 4 88
e 5 8
e 5 11
e 5 15
e 5 20
e 5 21
e 5 22
e 5 28
e 5 36
e 5 39
e 5 41
e 5 43
e 5 46
e 5 49
e 5 50
e 5 55
e 5 56
e 5 59
e 5 68
e 5 70
e 5 72
e 5 76
e 5 78
e 5 83
e 5 89
e 5 90
e 6 7
e 6 13
e 6 16
e 6 18
e 6 20
e 6 22
e 6 25
e 6 29
e 6 31
e 6 33
e 6 34
e 6 35
e 6 37
e 6 38
e 6 39
e 6 44
e 6 45
e 6 49
e 6 56
e 6 60
e 6 69
e 6 73
e 6 74
e 6 75
e 6 76
e 6 77
e 6 80
e 6 81
e 6 83
e 7 9
e 7 12
e 7 13
e 7 14
e 7 16
e 7 17
e 7 20
e 7 21
e 7 22
e 7 24
e 7 25
e 7 27
e 7 30
e 7 34
e 7 38
e 7 40
e 7 43
e 7 48
e 7 58
e 7 59
e 7 61
e 7 65
e 7 66
e 7 70
e 7 80
e 7 81
e 7 85
e 7 90
e 8 9
e 8 10
e 8 22
e 8 29
e 8 30
e 8 31
e 8 32
e 8 34
e 8 40
e 8 46
e 8 47
e 8 48
e 8 49
e 8 63
e 8 66
e 8 67
e 8 73
e 8 87
e 9 24
e 9 35
e 9 36
e 9 41
e 9 42
e 9 46
e 9 50
e 9 51
e 9 62
e 9 63
e 9 64
e 9 66
e 9 71
e 9 72
e 9 79
e 9 87
e 9 88
e 9 89
e 10 11
e 10 14
e 10 18
e 10 24
e 10 32
e 10 33
e 10 36
e 10 46
e 10 48
e 10 50
e 10 53
e 10 54
e 10 55
e 10 59
e 10 60
e 10 62
e 10 63
e 10 66
e 10 69
e 10 70
e 10 71
e 10 78
e 10 81
e 10 82
e 10 87
e 11 12
e 11 15
e 11 24
e 11 25
e 11 26
e 11 31
e 11 42
e 11 46
e 11 47
e 11 53
e 11 55
e 11 62
e 11 63
e 11 69
e 11 71
e 11 74
e 11 76
e 11 79
e 11 84
e 12 17
e 12 18
e 12 20
e 12 25
e 12 27
e 12 31
e 12 34
e 12 35
e 12 36
e 12 37
e 12 38
e 12 42
e 12 47
e 12 48
e 12 51
e 12 52
e 12 55
e 12 58
e 12 59
e 12 62
e 12 71
e 12 72
e 12 79
e 12 83
e 12 84
e 12 85
e 12 86
e 13 16
e 13 22
e 13 25
e 13 26
e 13 28
e 13 30
e 13 33
e 13 41
e 13 47
e 13 51
e 13 57
e 13 58
e 13 62
e 13 67
e 13 73
e 13 74
e 13 76
e 13 77
e 13 83
e 13 86
e 13 87
e 13 89
e 14 17
e 14 18
e 14 19
e 14 21
e 14 25
e 14 26
e 14 27
e 14 34
e 14 38
e 14 41
e 14 45
e 14 47
e 14 48
e 14 49
e 14 55
e 14 58
e 14 59
e 14 63
e 14 66
e 14 69
e 14 71
e 14 81
e 15 16
e 15 20
e 15 24
e 15 29
e 15 30
e 15 42
e 15 46
e 15 52
e 15 53
e 15 57
e 15 63
e 15 65
e 15 67
e 15 73
e 15 76
e 15 77
e 15 80
e 15 81
e 15 90
e 16 17
e 16 20
e 16 22
e 16 25
e 16 29
e 16 30
e 16 35
e 16 38
e 16 40
e 16 46
e 16 47
e 16 50
e 16 53
e 16 55
e 16 56
e 16 57
e 16 58
e 16 60
e 16 62
e 16 63
e 16 66
e 16 70
e 16 72
e 16 73
e 16 75
e 16 78
e 16 79
e 16 80
e 16 82
e 17 18
e 17 21
e 17 24
e 17 29
e 17 34
e 17 35
e 17 36
e 17 38
e 17 42
e 17 44
e 17 47
e 17 51
e 17 54
e 17 63
e 17 64
e 17 65
e 17 70
e 17 73
e 17 75
e 17 77
e 17 83
e 17 84
e 17 87
e 17 88
e 17 89
e 18 22
e 18 26
e 18 29
e 18 34
e 18 40
e 18 41
e 18 43
e 18 45
e 18 47
e 18 52
e 18 53
e 18 58
e 18 59
e 18 60
e 18 61
e 18 62
e 18 65
e 18 70
e 18 77
e 18 79
e 18 82
e 18 87
e 19 20
e 19 21
e 19 29
e 19 32
e 19 34
e 19 36
e 19 40
e 19 41
e 19 43
e 19 48
e 19 50
e 19 51
e 19 54
e 19 56
e 19 58
e 19 59
e 19 61
e 19 69
e 19 70
e 19 71
e 19 72
e 19 74
e 19 76
e 19 79
e 19 81
e 19 83
e 19 88
e 19 89
e 20 21
e 20 22
e 20 23
e 20 24
e 20 28
e 20 34
e 20 37
e 20 59
e 20 60
e 20 70
e 20 72
e 20 73
e 20 78
e 20 79
e 20 80
e 20 83
e 20 84
e 20 85
e 20 86
e 20 87
e 21 29
e 21 31
e 21 34
e 21 38
e 21 40
e 21 46
e 21 47
e 21 48
e 21 49
e 21 56
e 21 57
e 21 60
e 21 65
e 21 68
e 21 69
e 21 70
e 21 71
e 21 74
e 21 77
e 21 81
e 21 83
e 21 85
e 21 88
e 21 90
e 22 30
e 22 34
e 22 36
e 22 37
e 22 46
e 22 47
e 22 54
e 22 55
e 22 57
e 22 59
e 22 62
e 22 64
e 22 65
e 22 66
e 22 67
e 22 69
e 22 70
e 22 79
e 22 82
e 22 83
e 22 84
e 22 85
e 22 86
e 23 24
e 23 30
e 23 33
e 23 35
e 23 52
e 23 54
e 23 59
e 23 63
e 23 66
e 23 67
e 23 69
e 23 73
e 23 75
e 23 81
e 23 86
e 23 88
e 24 25
e 24 26
e 24 28
e 24 49
e 24 50
e 24 55
e 24 60
e 24 61
e 24 62
e 24 63
e 24 68
e 24 69
e 24 75
e 24 76
e 24 80
e 24 81
e 24 86
e 24 87
e 24 88
e 25 27
e 25 32
e 25 35
e 25 39
e 25 40
e 25 41
e 25 43
e 25 44
e 25 47
e 25 54
e 25 55
e 25 65
e 25 66
e 25 68
e 25 69
e 25 70
e 25 72
e 25 76
e 25 86
e 25 87
e 25 88
e 26 27
e 26 29
e 26 30
e 26 31
e 26 33
e 26 34
e 26 38
e 26 40
e 26 42
e 26 46
e 26 48
e 26 56
e 26 66
e 26 68
e 26 69
e 26 70
e 26 73
e 26 78
e 26 82
e 26 86
e 26 90
e 27 37
e 27 38
e 27 39
e 27 40
e 27 41
e 27 52
e 27 60
e 27 62
e 27 64
e 27 65
e 27 68
e 27 71
e 27 76
e 27 77
e 27 78
e 27 81
e 27 82
e 27 89
e 28 31
e 28 34
e 28 35
e 28 42
e 28 44
e 28 45
e 28 48
e 28 49
e 28 53
e 28 54
e 28 55
e 28 58
e 28 68
e 28 70
e 28 72
e 28 73
e 28 74
e 28 76
e 28 78
e 28 79
e 29 30
e 29 32
e 29 33
e 29 34
e 29 38
e 29 44
e 29 45
e 29 46
e 29 48
e 29 49
e 29 53
e 29 60
e 29 63
e 29 66
e 29 68
e 29 78
e 29 79
e 29 82
e 29 85
e 29 90
e 30 34
e 30 35
e 30 36
e 30 39
e 30 42
e 30 43
e 30 44
e 30 47
e 30 54
e 30 55
e 30 61
e 30 70
e 30 73
e 30 77
e 30 79
e 30 81
e 30 85
e 30 87
e 31 34
e 31 35
e 31 43
e 31 50
e 31 55
e 31 56
e 31 61
e 31 62
e 31 63
e 31 65
e 31 66
e 31 71
e 31 72
e 31 73
e 31 74
e 31 79
e 31 83
e 31 84
e 31 85
e 31 87
e 32 34
e 32 37
e 32 39
e 32 41
e 32 43
e 32 44
e 32 46
e 32 50
e 32 59
e 32 61
e 32 62
e 32 63
e 32 64
e 32 69
e 32 72
e 32 76
e 32 77
e 32 80
e 32 83
e 32 87
e 33 42
e 33 45
e 33 47
e 33 48
e 33 53
e 33 59
e 33 60
e 33 61
e 33 62
e 33 66
e 33 71
e 33 73
e 33 75
e 33 76
e 33 78
e 33 85
e 33 86
e 34 37
e 34 45
e 34 49
e 34 52
e 34 56
e 34 63
e 34 66
e 34 73
e 34 74
e 34 78
e 34 80
e 34 83
e 34 85
e 34 86
e 35 36
e 35 37
e 35 38
e 35 43
e 35 44
e 35 49
e 35 51
e 35 55
e 35 57
e 35 63
e 35 70
e 35 73
e 35 78
e 35 86
e 35 87
e 35 88
e 36 42
e 36 46
e 36 48
e 36 50
e 36 56
e 36 60
e 36 64
e 36 74
e 36 82
e 36 83
e 36 85
e 37 39
e 37 41
e 37 42
e 37 43
e 37 45
e 37 51
e 37 57
e 37 65
e 37 66
e 37 70
e 37 72
e 37 74
e 37 78
e 37 79
e 37 80
e 37 82
e 37 86
e 37 88
e 38 41
e 38 42
e 38 43
e 38 44
e 38 45
e 38 48
e 38 49
e 38 51
e 38 54
e 38 56
e 38 57
e 38 58
e 38 62
e 38 63
e 38 64
e 38 70
e 38 73
e 38 74
e 38 77
e 38 80
e 38 88
e 38 90
e 39 41
e 39 43
e 39 46
e 39 48
e 39 51
e 39 53
e 39 54
e 39 55
e 39 63
e 39 73
e 39 75
e 39 76
e 39 78
e 39 79
e 39 80
e 39 82
e 39 84
e 39 89
e 40 46
e 40 48
e 40 50
e 40 53
e 40 54
e 40 56
e 40 57
e 40 60
e 40 61
e 40 67
e 40 70
e 40 76
e 40 78
e 40 79
e 40 85
e 40 88
e 40 90
e 41 46
e 41 56
e 41 57
e 41 59
e 41 60
e 41 74
e 41 75
e 41 77
e 41 78
e 41 79
e 41 82
e 41 87
e 41 89
e 41 90
e 42 43
e 42 55
e 42 58
e 42 60
e 42 61
e 42 66
e 42 73
e 42 80
e 42 82
e 43 46
e 43 49
e 43 59
e 43 64
e 43 68
e 43 72
e 43 74
e 43 86
e 43 88
e 44 47
e 44 48
e 44 56
e 44 62
e 44 67
e 44 72
e 44 74
e 44 76
e 44 89
e 44 90
e 45 49
e 45 51
e 45 56
e 45 57
e 45 60
e 45 64
e 45 65
e 45 67
e 45 68
e 45 69
e 45 73
e 45 76
e 45 77
e 45 80
e 45 81
e 45 87
e 45 89
e 46 50
e 46 55
e 46 60
e 46 61
e 46 64
e 46 65
e 46 70
e 46 72
e 46 77
e 46 78
e 46 84
e 46 87
e 47 53
e 47 55
e 47 63
e 47 64
e 47 68
e 47 69
e 47 77
e 47 88
e 47 90
e 48 52
e 48 53
e 48 54
e 48 59
e 48 60
e 48 61
e 48 62
e 48 70
e 48 71
e 48 72
e 48 75
e 48 77
e 48 80
e 48 82
e 48 83
e 48 87
e 48 90
e 49 52
e 49 56
e 49 57
e 49 58
e 49 60
e 49 63
e 49 64
e 49 68
e 49 69
e 49 74
e 49 77
e 49 79
e 49 80
e 49 81
e 49 82
e 49 86
e 49 89
e 50 51
e 50 53
e 50 57
e 50 58
e 50 59
e 50 60
e 50 64
e 50 65
e 50 68
e 50 70
e 50 73
e 50 76
e 50 79
e 50 81
e 50 82
e 50 86
e 51 52
e 51 56
e 51 58
e 51 63
e 51 65
e 51 70
e 51 75
e 51 78
e 51 80
e 51 83
e 51 88
e 51 89
e 52 61
e 52 62
e 52 66
e 52 67
e 52 69
e 52 71
e 52 76
e 52 80
e 52 81
e 52 83
e 53 62
e 53 66
e 53 67
e 53 68
e 53 70
e 53 73
e 53 76
e 53 79
e 53 82
e 53 83
e 53 84
e 53 86
e 53 90
e 54 58
e 54 62
e 54 64
e 54 65
e 54 66
e 54 76
e 54 79
e 54 80
e 54 87
e 55 56
e 55 57
e 55 60
e 55 61
e 55 62
e 55 63
e 55 65
e 55 66
e 55 67
e 55 74
e 55 75
e 55 77
e 55 84
e 55 85
e 55 88
e 55 90
e 56 59
e 56 61
e 56 62
e 56 64
e 56 65
e 56 69
e 56 70
e 56 75
e 56 77
e 56 78
e 56 88
e 57 60
e 57 63
e 57 64
e 57 68
e 57 69
e 57 76
e 57 80
e 57 81
e 57 82
e 57 86
e 57 89
e 57 90
e 58 62
e 58 66
e 58 77
e 58 78
e 58 80
e 58 81
e 58 83
e 58 84
e 58 88
e 59 64
e 59 66
e 59 69
e 59 78
e 59 79
e 59 86
e 59 90
e 60 71
e 60 74
e 60 84
e 60 87
e 61 63
e 61 64
e 61 67
e 61 71
e 61 73
e 61 74
e 61 84
e 62 65
e 62 66
e 62 71
e 62 72
e 62 75
e 62 84
e 62 90
e 63 65
e 63 71
e 63 77
e 63 79
e 63 90
e 64 65
e 64 66
e 64 68
e 64 69
e 64 73
e 64 74
e 64 79
e 64 83
e 64 85
e 64 88
e 64 89
e 65 73
e 65 75
e 65 77
e 65 78
e 65 79
e 65 83
e 66 67
e 66 69
e 66 73
e 66 77
e 66 78
e 66 87
e 66 90
e 67 68
e 67 71
e 67 79
e 67 81
e 67 83
e 67 84
e 67 86
e 68 69
e 68 76
e 68 78
e 68 79
e 68 82
e 68 84
e 68 86
e 68 87
e 69 71
e 69 76
e 69 80
e 69 82
e 69 83
e 69 84
e 69 86
e 69 89
e 70 72
e 70 78
e 70 82
e 70 83
e 70 88
e 70 89
e 71 73
e 71 76
e 71 79
e 71 80
e 71 84
e 71 85
e 71 88
e 71 90
e 72 73
e 72 76
e 72 78
e 72 82
e 72 90
e 73 74
e 73 76
e 73 77
e 73 80
e 73 83
e 73 86
e 73 89
e 74 79
e 74 83
e 74 84
e 74 85
e 74 87
e 74 89
e 75 77
e 75 87
e 75 88
e 75 90
e 76 79
e 76 83
e 76 85
e 76 86
e 76 88
e 76 90
e 77 78
e 77 79
e 77 87
e 77 89
e 78 79
e 78 80
e 78 81
e 78 84
e 79 84
e 79 90
e 80 81
e 80 82
e 80 88
e 81 86
e 82 83
e 82 87
e 82 88
e 82 90
e 84 86
e 85 88
e 85 89
e 86 89
e 86 90
e 87 89
